(set-info :smt-lib-version 2.6)
(set-logic QF_S)
(set-info :source |
Generated by: Joel Day, Thorsten Ehlers, Mitja Kulczynski, Federico Mora, Florin Manea, Dirk Nowotka, Danny Poulsen, Zhengyang Lu
Application: Test WOORPJE
Target solver: WOORPJE
Publications: Day, J. D., Ehlers, T., Kulczynski, M., Manea, F., Nowotka, D., & Poulsen, D. B. (2019). On solving word equations using SAT. In RP 2019
Description: Transoformed and expanded from Track02
|)
(set-info :license "https://creativecommons.org/licenses/by/4.0/")
(set-info :category "random")
(set-info :status unknown)

(declare-fun N () String)
(declare-fun J () String)
(declare-fun I () String)
(declare-fun K () String)
(declare-fun H () String)
(declare-fun G () String)
(declare-fun L () String)
(declare-fun O () String)
(declare-fun M () String)
(declare-fun Q () String)
(assert (= (str.++  G I "aaaaaaaa" G I "aaaaaaab" K "aa" K J J "b" M L L "ab" O O "b" Q)  (str.++  "a" H "aaaaaaaaa" J K "aa" K "aa" J K "aa" K "b" M M L "a" M M L "ab" N N "b" O O "baa") ))
(check-sat)

(exit)
